(set-logic QF_NRA)
(set-info :source |Benchmarks generated from hycomp (https://es-static.fbk.eu/tools/hycomp/). BMC instances of non-linear hybrid automata taken from: Alessandro Cimatti, Sergio Mover, Stefano Tonetta, A quantifier-free SMT encoding of non-linear hybrid automata, FMCAD 2012 and Alessandro Cimatti, Sergio Mover, Stefano Tonetta, Quantier-free encoding of invariants for Hybrid Systems, Formal Methods in System Design. This instance solves a BMC problem of depth 3 and uses the encoding obtained with quantifier elimination using qepcad encoding. Contacts: Sergio Mover (mover@fbk.eu), Stefano Tonetta (tonettas@fbk.eu), Alessandro Cimatti (cimatti@fbk.eu).|)
(set-info :smt-lib-version 2.0)
(set-info :category "industrial")
(set-info :status unsat)
;; MathSAT API call trace
;; generated on Mon Mar 19 10:45:25 2012
(declare-fun b.x__AT0 () Real)
(declare-fun b.time__AT3 () Real)
(declare-fun b.speed_x__AT1 () Real)
(declare-fun b.delta__AT3 () Real)
(declare-fun b.time__AT1 () Real)
(declare-fun g__AT0 () Real)
(declare-fun b.y__AT0 () Real)
(declare-fun b.counter.3__AT3 () Bool)
(declare-fun b.EVENT.0__AT1 () Bool)
(declare-fun b.speed_y__AT1 () Real)
(declare-fun b.EVENT.0__AT3 () Bool)
(declare-fun b.delta__AT1 () Real)
(declare-fun b.counter.0__AT0 () Bool)
(declare-fun b.EVENT.1__AT1 () Bool)
(declare-fun b.EVENT.1__AT3 () Bool)
(declare-fun b.delta__AT0 () Real)
(declare-fun b.counter.1__AT0 () Bool)
(declare-fun b.x__AT3 () Real)
(declare-fun b.y__AT2 () Real)
(declare-fun b.EVENT.0__AT0 () Bool)
(declare-fun b.counter.0__AT2 () Bool)
(declare-fun b.y__AT4 () Real)
(declare-fun b.counter.1__AT2 () Bool)
(declare-fun b.x__AT1 () Real)
(declare-fun b.counter.2__AT2 () Bool)
(declare-fun b.speed_y__AT0 () Real)
(declare-fun b.speed_x__AT2 () Real)
(declare-fun b.event_is_timed__AT0 () Bool)
(declare-fun b.y__AT3 () Real)
(declare-fun b.speed_y__AT2 () Real)
(declare-fun b.counter.0__AT3 () Bool)
(declare-fun b.counter.1__AT3 () Bool)
(declare-fun b.counter.3__AT0 () Bool)
(declare-fun b.counter.2__AT3 () Bool)
(declare-fun b.event_is_timed__AT2 () Bool)
(declare-fun b.speed_x__AT3 () Real)
(declare-fun speed_loss__AT0 () Real)
(declare-fun b.y__AT1 () Real)
(declare-fun b.EVENT.1__AT0 () Bool)
(declare-fun b.speed_y__AT3 () Real)
(declare-fun b.counter.3__AT2 () Bool)
(declare-fun b.time__AT2 () Real)
(declare-fun b.event_is_timed__AT1 () Bool)
(declare-fun b.counter.0__AT1 () Bool)
(declare-fun b.event_is_timed__AT3 () Bool)
(declare-fun b.speed_x__AT0 () Real)
(declare-fun b.delta__AT2 () Real)
(declare-fun b.counter.1__AT1 () Bool)
(declare-fun b.time__AT0 () Real)
(declare-fun b.x__AT2 () Real)
(declare-fun b.EVENT.0__AT2 () Bool)
(declare-fun b.counter.2__AT0 () Bool)
(declare-fun b.counter.2__AT1 () Bool)
(declare-fun b.EVENT.1__AT2 () Bool)
(declare-fun b.counter.3__AT1 () Bool)
(assert (let ((.def_726 (= b.y__AT3 b.y__AT4)))
(let ((.def_727 (not .def_726)))
(let ((.def_699 (* 2.0 b.delta__AT3)))
(let ((.def_700 (* b.speed_y__AT3 .def_699)))
(let ((.def_696 (* b.delta__AT3 b.delta__AT3)))
(let ((.def_697 (* g__AT0 .def_696)))
(let ((.def_698 (* (- 1.0) .def_697)))
(let ((.def_701 (+ .def_698 .def_700)))
(let ((.def_702 (* 2.0 b.y__AT3)))
(let ((.def_704 (+ .def_702 .def_701)))
(let ((.def_719 (<= .def_704 0.0 )))
(let ((.def_720 (not .def_719)))
(let ((.def_716 (* b.speed_y__AT3 b.speed_y__AT3)))
(let ((.def_715 (* g__AT0 .def_702)))
(let ((.def_717 (+ .def_715 .def_716)))
(let ((.def_718 (<= .def_717 0.0 )))
(let ((.def_721 (and .def_718 .def_720)))
(let ((.def_669 (not b.EVENT.0__AT3)))
(let ((.def_667 (not b.EVENT.1__AT3)))
(let ((.def_689 (and .def_667 .def_669)))
(let ((.def_722 (and .def_689 .def_721)))
(let ((.def_709 (* b.speed_y__AT3 b.delta__AT3)))
(let ((.def_710 (+ .def_702 .def_709)))
(let ((.def_711 (<= 0.0 .def_710)))
(let ((.def_694 (<= 0.0 b.speed_y__AT3)))
(let ((.def_708 (not .def_694)))
(let ((.def_712 (and .def_708 .def_711)))
(let ((.def_705 (<= 0.0 .def_704)))
(let ((.def_713 (and .def_705 .def_712)))
(let ((.def_672 (<= 0.0 b.y__AT3)))
(let ((.def_695 (and .def_672 .def_694)))
(let ((.def_706 (and .def_695 .def_705)))
(let ((.def_692 (<= 0.0 b.delta__AT3)))
(let ((.def_693 (not .def_692)))
(let ((.def_707 (or .def_693 .def_706)))
(let ((.def_714 (or .def_707 .def_713)))
(let ((.def_723 (or .def_714 .def_722)))
(let ((.def_724 (not .def_723)))
(let ((.def_728 (or .def_724 .def_727)))
(let ((.def_690 (not .def_689)))
(let ((.def_729 (or .def_690 .def_728)))
(let ((.def_378 (not b.counter.0__AT2)))
(let ((.def_682 (or b.counter.1__AT2 .def_378)))
(let ((.def_683 (or b.counter.2__AT2 .def_682)))
(let ((.def_366 (not b.counter.1__AT2)))
(let ((.def_677 (and .def_366 .def_378)))
(let ((.def_373 (not b.counter.2__AT2)))
(let ((.def_681 (or .def_373 .def_677)))
(let ((.def_684 (and .def_681 .def_683)))
(let ((.def_685 (or b.counter.3__AT2 .def_684)))
(let ((.def_678 (or b.counter.2__AT2 .def_677)))
(let ((.def_676 (or .def_366 .def_373)))
(let ((.def_679 (and .def_676 .def_678)))
(let ((.def_388 (not b.counter.3__AT2)))
(let ((.def_680 (or .def_388 .def_679)))
(let ((.def_686 (and .def_680 .def_685)))
(let ((.def_71 (<= speed_loss__AT0 (/ 1 2))))
(let ((.def_68 (<= (/ 1 10) speed_loss__AT0)))
(let ((.def_72 (and .def_68 .def_71)))
(let ((.def_63 (<= g__AT0 10.0 )))
(let ((.def_62 (<= 8.0 g__AT0)))
(let ((.def_64 (and .def_62 .def_63)))
(let ((.def_73 (and .def_64 .def_72)))
(let ((.def_673 (and .def_73 .def_672)))
(let ((.def_670 (or .def_667 .def_669)))
(let ((.def_9 (not b.counter.0__AT3)))
(let ((.def_6 (not b.counter.1__AT3)))
(let ((.def_660 (or .def_6 .def_9)))
(let ((.def_664 (or b.counter.3__AT3 .def_660)))
(let ((.def_661 (or b.counter.2__AT3 .def_660)))
(let ((.def_4 (not b.counter.2__AT3)))
(let ((.def_659 (or .def_4 .def_9)))
(let ((.def_662 (and .def_659 .def_661)))
(let ((.def_14 (not b.counter.3__AT3)))
(let ((.def_663 (or .def_14 .def_662)))
(let ((.def_665 (and .def_663 .def_664)))
(let ((.def_671 (and .def_665 .def_670)))
(let ((.def_674 (and .def_671 .def_673)))
(let ((.def_497 (<= 0.0 b.delta__AT2)))
(let ((.def_474 (not b.EVENT.0__AT2)))
(let ((.def_472 (not b.EVENT.1__AT2)))
(let ((.def_494 (and .def_472 .def_474)))
(let ((.def_495 (not .def_494)))
(let ((.def_655 (or .def_495 .def_497)))
(let ((.def_656 (or b.EVENT.1__AT2 .def_655)))
(let ((.def_605 (= b.counter.0__AT3 b.counter.0__AT2)))
(let ((.def_603 (= b.counter.1__AT3 b.counter.1__AT2)))
(let ((.def_601 (= b.counter.2__AT3 b.counter.2__AT2)))
(let ((.def_600 (= b.counter.3__AT3 b.counter.3__AT2)))
(let ((.def_602 (and .def_600 .def_601)))
(let ((.def_604 (and .def_602 .def_603)))
(let ((.def_606 (and .def_604 .def_605)))
(let ((.def_652 (or .def_495 .def_606)))
(let ((.def_653 (or b.EVENT.1__AT2 .def_652)))
(let ((.def_612 (= b.x__AT2 b.x__AT3)))
(let ((.def_531 (= b.y__AT2 b.y__AT3)))
(let ((.def_646 (and .def_531 .def_612)))
(let ((.def_546 (= b.speed_x__AT2 b.speed_x__AT3)))
(let ((.def_647 (and .def_546 .def_646)))
(let ((.def_599 (= b.speed_y__AT2 b.speed_y__AT3)))
(let ((.def_648 (and .def_599 .def_647)))
(let ((.def_643 (= b.delta__AT2 0.0 )))
(let ((.def_644 (and .def_494 .def_643)))
(let ((.def_645 (not .def_644)))
(let ((.def_649 (or .def_645 .def_648)))
(let ((.def_650 (or b.EVENT.1__AT2 .def_649)))
(let ((.def_623 (= b.time__AT2 b.time__AT3)))
(let ((.def_635 (and .def_612 .def_623)))
(let ((.def_636 (and .def_531 .def_635)))
(let ((.def_637 (and .def_546 .def_636)))
(let ((.def_638 (and .def_599 .def_637)))
(let ((.def_639 (and .def_606 .def_638)))
(let ((.def_640 (or .def_472 .def_639)))
(let ((.def_626 (* (- 1.0) b.time__AT3)))
(let ((.def_629 (+ b.delta__AT2 .def_626)))
(let ((.def_630 (+ b.time__AT2 .def_629)))
(let ((.def_631 (= .def_630 0.0 )))
(let ((.def_632 (or .def_495 .def_631)))
(let ((.def_633 (or b.EVENT.1__AT2 .def_632)))
(let ((.def_624 (or .def_494 .def_623)))
(let ((.def_625 (or b.EVENT.1__AT2 .def_624)))
(let ((.def_634 (and .def_625 .def_633)))
(let ((.def_641 (and .def_634 .def_640)))
(let ((.def_619 (= .def_495 b.event_is_timed__AT3)))
(let ((.def_617 (= b.event_is_timed__AT2 .def_494)))
(let ((.def_620 (and .def_617 .def_619)))
(let ((.def_607 (and .def_599 .def_606)))
(let ((.def_563 (= b.y__AT2 0.0 )))
(let ((.def_499 (<= 0.0 b.speed_y__AT2)))
(let ((.def_513 (not .def_499)))
(let ((.def_564 (and .def_513 .def_563)))
(let ((.def_608 (or .def_564 .def_607)))
(let ((.def_576 (or .def_9 b.counter.0__AT2)))
(let ((.def_575 (or b.counter.0__AT3 .def_378)))
(let ((.def_577 (and .def_575 .def_576)))
(let ((.def_578 (and .def_6 .def_577)))
(let ((.def_579 (or b.counter.1__AT2 .def_578)))
(let ((.def_574 (or b.counter.1__AT3 .def_366)))
(let ((.def_580 (and .def_574 .def_579)))
(let ((.def_591 (and .def_4 .def_580)))
(let ((.def_592 (or b.counter.2__AT2 .def_591)))
(let ((.def_586 (and .def_6 .def_378)))
(let ((.def_587 (or b.counter.1__AT2 .def_586)))
(let ((.def_588 (and .def_574 .def_587)))
(let ((.def_589 (and b.counter.2__AT3 .def_588)))
(let ((.def_590 (or .def_373 .def_589)))
(let ((.def_593 (and .def_590 .def_592)))
(let ((.def_594 (and b.counter.3__AT3 .def_593)))
(let ((.def_595 (or b.counter.3__AT2 .def_594)))
(let ((.def_581 (and b.counter.2__AT3 .def_580)))
(let ((.def_582 (or b.counter.2__AT2 .def_581)))
(let ((.def_570 (or b.counter.1__AT3 b.counter.1__AT2)))
(let ((.def_568 (and .def_6 b.counter.0__AT3)))
(let ((.def_569 (or .def_366 .def_568)))
(let ((.def_571 (and .def_569 .def_570)))
(let ((.def_572 (and .def_4 .def_571)))
(let ((.def_573 (or .def_373 .def_572)))
(let ((.def_583 (and .def_573 .def_582)))
(let ((.def_584 (and .def_14 .def_583)))
(let ((.def_585 (or .def_388 .def_584)))
(let ((.def_596 (and .def_585 .def_595)))
(let ((.def_354 (* (- 1.0) b.speed_y__AT2)))
(let ((.def_159 (* (- 1.0) speed_loss__AT0)))
(let ((.def_160 (+ 1.0 .def_159)))
(let ((.def_566 (* .def_160 .def_354)))
(let ((.def_567 (= b.speed_y__AT3 .def_566)))
(let ((.def_597 (and .def_567 .def_596)))
(let ((.def_565 (not .def_564)))
(let ((.def_598 (or .def_565 .def_597)))
(let ((.def_609 (and .def_598 .def_608)))
(let ((.def_610 (and .def_531 .def_609)))
(let ((.def_611 (and .def_546 .def_610)))
(let ((.def_613 (and .def_611 .def_612)))
(let ((.def_614 (or .def_494 .def_613)))
(let ((.def_615 (or b.EVENT.1__AT2 .def_614)))
(let ((.def_557 (* (- 1.0) b.speed_y__AT3)))
(let ((.def_122 (* (- 1.0) g__AT0)))
(let ((.def_555 (* .def_122 b.delta__AT2)))
(let ((.def_558 (+ .def_555 .def_557)))
(let ((.def_559 (+ b.speed_y__AT2 .def_558)))
(let ((.def_560 (= .def_559 0.0 )))
(let ((.def_550 (* (- 1.0) b.x__AT3)))
(let ((.def_548 (* b.speed_x__AT2 b.delta__AT2)))
(let ((.def_551 (+ .def_548 .def_550)))
(let ((.def_552 (+ b.x__AT2 .def_551)))
(let ((.def_553 (= .def_552 0.0 )))
(let ((.def_501 (* b.delta__AT2 b.delta__AT2)))
(let ((.def_123 (* (/ 1 2) .def_122)))
(let ((.def_536 (* .def_123 .def_501)))
(let ((.def_538 (* (- 1.0) b.y__AT3)))
(let ((.def_541 (+ .def_538 .def_536)))
(let ((.def_514 (* b.speed_y__AT2 b.delta__AT2)))
(let ((.def_542 (+ .def_514 .def_541)))
(let ((.def_543 (+ b.y__AT2 .def_542)))
(let ((.def_544 (= .def_543 0.0 )))
(let ((.def_547 (and .def_544 .def_546)))
(let ((.def_554 (and .def_547 .def_553)))
(let ((.def_561 (and .def_554 .def_560)))
(let ((.def_562 (or .def_495 .def_561)))
(let ((.def_616 (and .def_562 .def_615)))
(let ((.def_621 (and .def_616 .def_620)))
(let ((.def_642 (and .def_621 .def_641)))
(let ((.def_651 (and .def_642 .def_650)))
(let ((.def_654 (and .def_651 .def_653)))
(let ((.def_657 (and .def_654 .def_656)))
(let ((.def_658 (and .def_472 .def_657)))
(let ((.def_675 (and .def_658 .def_674)))
(let ((.def_687 (and .def_675 .def_686)))
(let ((.def_532 (not .def_531)))
(let ((.def_504 (* 2.0 b.delta__AT2)))
(let ((.def_505 (* b.speed_y__AT2 .def_504)))
(let ((.def_502 (* g__AT0 .def_501)))
(let ((.def_503 (* (- 1.0) .def_502)))
(let ((.def_506 (+ .def_503 .def_505)))
(let ((.def_507 (* 2.0 b.y__AT2)))
(let ((.def_509 (+ .def_507 .def_506)))
(let ((.def_524 (<= .def_509 0.0 )))
(let ((.def_525 (not .def_524)))
(let ((.def_521 (* b.speed_y__AT2 b.speed_y__AT2)))
(let ((.def_520 (* g__AT0 .def_507)))
(let ((.def_522 (+ .def_520 .def_521)))
(let ((.def_523 (<= .def_522 0.0 )))
(let ((.def_526 (and .def_523 .def_525)))
(let ((.def_527 (and .def_494 .def_526)))
(let ((.def_515 (+ .def_507 .def_514)))
(let ((.def_516 (<= 0.0 .def_515)))
(let ((.def_517 (and .def_513 .def_516)))
(let ((.def_510 (<= 0.0 .def_509)))
(let ((.def_518 (and .def_510 .def_517)))
(let ((.def_477 (<= 0.0 b.y__AT2)))
(let ((.def_500 (and .def_477 .def_499)))
(let ((.def_511 (and .def_500 .def_510)))
(let ((.def_498 (not .def_497)))
(let ((.def_512 (or .def_498 .def_511)))
(let ((.def_519 (or .def_512 .def_518)))
(let ((.def_528 (or .def_519 .def_527)))
(let ((.def_529 (not .def_528)))
(let ((.def_533 (or .def_529 .def_532)))
(let ((.def_534 (or .def_495 .def_533)))
(let ((.def_176 (not b.counter.0__AT1)))
(let ((.def_487 (or b.counter.1__AT1 .def_176)))
(let ((.def_488 (or b.counter.2__AT1 .def_487)))
(let ((.def_164 (not b.counter.1__AT1)))
(let ((.def_482 (and .def_164 .def_176)))
(let ((.def_171 (not b.counter.2__AT1)))
(let ((.def_486 (or .def_171 .def_482)))
(let ((.def_489 (and .def_486 .def_488)))
(let ((.def_490 (or b.counter.3__AT1 .def_489)))
(let ((.def_483 (or b.counter.2__AT1 .def_482)))
(let ((.def_481 (or .def_164 .def_171)))
(let ((.def_484 (and .def_481 .def_483)))
(let ((.def_186 (not b.counter.3__AT1)))
(let ((.def_485 (or .def_186 .def_484)))
(let ((.def_491 (and .def_485 .def_490)))
(let ((.def_478 (and .def_73 .def_477)))
(let ((.def_475 (or .def_472 .def_474)))
(let ((.def_465 (or .def_366 .def_378)))
(let ((.def_469 (or b.counter.3__AT2 .def_465)))
(let ((.def_466 (or b.counter.2__AT2 .def_465)))
(let ((.def_464 (or .def_373 .def_378)))
(let ((.def_467 (and .def_464 .def_466)))
(let ((.def_468 (or .def_388 .def_467)))
(let ((.def_470 (and .def_468 .def_469)))
(let ((.def_476 (and .def_470 .def_475)))
(let ((.def_479 (and .def_476 .def_478)))
(let ((.def_294 (<= 0.0 b.delta__AT1)))
(let ((.def_272 (not b.EVENT.0__AT1)))
(let ((.def_270 (not b.EVENT.1__AT1)))
(let ((.def_291 (and .def_270 .def_272)))
(let ((.def_292 (not .def_291)))
(let ((.def_460 (or .def_292 .def_294)))
(let ((.def_461 (or b.EVENT.1__AT1 .def_460)))
(let ((.def_410 (= b.counter.0__AT1 b.counter.0__AT2)))
(let ((.def_408 (= b.counter.1__AT1 b.counter.1__AT2)))
(let ((.def_406 (= b.counter.2__AT1 b.counter.2__AT2)))
(let ((.def_405 (= b.counter.3__AT1 b.counter.3__AT2)))
(let ((.def_407 (and .def_405 .def_406)))
(let ((.def_409 (and .def_407 .def_408)))
(let ((.def_411 (and .def_409 .def_410)))
(let ((.def_457 (or .def_292 .def_411)))
(let ((.def_458 (or b.EVENT.1__AT1 .def_457)))
(let ((.def_417 (= b.x__AT1 b.x__AT2)))
(let ((.def_328 (= b.y__AT1 b.y__AT2)))
(let ((.def_451 (and .def_328 .def_417)))
(let ((.def_343 (= b.speed_x__AT1 b.speed_x__AT2)))
(let ((.def_452 (and .def_343 .def_451)))
(let ((.def_404 (= b.speed_y__AT1 b.speed_y__AT2)))
(let ((.def_453 (and .def_404 .def_452)))
(let ((.def_448 (= b.delta__AT1 0.0 )))
(let ((.def_449 (and .def_291 .def_448)))
(let ((.def_450 (not .def_449)))
(let ((.def_454 (or .def_450 .def_453)))
(let ((.def_455 (or b.EVENT.1__AT1 .def_454)))
(let ((.def_428 (= b.time__AT1 b.time__AT2)))
(let ((.def_440 (and .def_417 .def_428)))
(let ((.def_441 (and .def_328 .def_440)))
(let ((.def_442 (and .def_343 .def_441)))
(let ((.def_443 (and .def_404 .def_442)))
(let ((.def_444 (and .def_411 .def_443)))
(let ((.def_445 (or .def_270 .def_444)))
(let ((.def_431 (* (- 1.0) b.time__AT2)))
(let ((.def_434 (+ b.delta__AT1 .def_431)))
(let ((.def_435 (+ b.time__AT1 .def_434)))
(let ((.def_436 (= .def_435 0.0 )))
(let ((.def_437 (or .def_292 .def_436)))
(let ((.def_438 (or b.EVENT.1__AT1 .def_437)))
(let ((.def_429 (or .def_291 .def_428)))
(let ((.def_430 (or b.EVENT.1__AT1 .def_429)))
(let ((.def_439 (and .def_430 .def_438)))
(let ((.def_446 (and .def_439 .def_445)))
(let ((.def_424 (= .def_292 b.event_is_timed__AT2)))
(let ((.def_422 (= b.event_is_timed__AT1 .def_291)))
(let ((.def_425 (and .def_422 .def_424)))
(let ((.def_412 (and .def_404 .def_411)))
(let ((.def_360 (= b.y__AT1 0.0 )))
(let ((.def_296 (<= 0.0 b.speed_y__AT1)))
(let ((.def_310 (not .def_296)))
(let ((.def_361 (and .def_310 .def_360)))
(let ((.def_413 (or .def_361 .def_412)))
(let ((.def_379 (or b.counter.0__AT1 .def_378)))
(let ((.def_377 (or .def_176 b.counter.0__AT2)))
(let ((.def_380 (and .def_377 .def_379)))
(let ((.def_381 (and .def_366 .def_380)))
(let ((.def_382 (or b.counter.1__AT1 .def_381)))
(let ((.def_376 (or .def_164 b.counter.1__AT2)))
(let ((.def_383 (and .def_376 .def_382)))
(let ((.def_396 (and .def_373 .def_383)))
(let ((.def_397 (or b.counter.2__AT1 .def_396)))
(let ((.def_391 (and .def_176 .def_366)))
(let ((.def_392 (or b.counter.1__AT1 .def_391)))
(let ((.def_393 (and .def_376 .def_392)))
(let ((.def_394 (and b.counter.2__AT2 .def_393)))
(let ((.def_395 (or .def_171 .def_394)))
(let ((.def_398 (and .def_395 .def_397)))
(let ((.def_399 (and b.counter.3__AT2 .def_398)))
(let ((.def_400 (or b.counter.3__AT1 .def_399)))
(let ((.def_384 (and b.counter.2__AT2 .def_383)))
(let ((.def_385 (or b.counter.2__AT1 .def_384)))
(let ((.def_370 (or b.counter.1__AT1 b.counter.1__AT2)))
(let ((.def_368 (and .def_366 b.counter.0__AT2)))
(let ((.def_369 (or .def_164 .def_368)))
(let ((.def_371 (and .def_369 .def_370)))
(let ((.def_374 (and .def_371 .def_373)))
(let ((.def_375 (or .def_171 .def_374)))
(let ((.def_386 (and .def_375 .def_385)))
(let ((.def_389 (and .def_386 .def_388)))
(let ((.def_390 (or .def_186 .def_389)))
(let ((.def_401 (and .def_390 .def_400)))
(let ((.def_149 (* (- 1.0) b.speed_y__AT1)))
(let ((.def_363 (* .def_149 .def_160)))
(let ((.def_364 (= b.speed_y__AT2 .def_363)))
(let ((.def_402 (and .def_364 .def_401)))
(let ((.def_362 (not .def_361)))
(let ((.def_403 (or .def_362 .def_402)))
(let ((.def_414 (and .def_403 .def_413)))
(let ((.def_415 (and .def_328 .def_414)))
(let ((.def_416 (and .def_343 .def_415)))
(let ((.def_418 (and .def_416 .def_417)))
(let ((.def_419 (or .def_291 .def_418)))
(let ((.def_420 (or b.EVENT.1__AT1 .def_419)))
(let ((.def_352 (* .def_122 b.delta__AT1)))
(let ((.def_355 (+ .def_352 .def_354)))
(let ((.def_356 (+ b.speed_y__AT1 .def_355)))
(let ((.def_357 (= .def_356 0.0 )))
(let ((.def_347 (* (- 1.0) b.x__AT2)))
(let ((.def_345 (* b.speed_x__AT1 b.delta__AT1)))
(let ((.def_348 (+ .def_345 .def_347)))
(let ((.def_349 (+ b.x__AT1 .def_348)))
(let ((.def_350 (= .def_349 0.0 )))
(let ((.def_298 (* b.delta__AT1 b.delta__AT1)))
(let ((.def_333 (* .def_123 .def_298)))
(let ((.def_335 (* (- 1.0) b.y__AT2)))
(let ((.def_338 (+ .def_335 .def_333)))
(let ((.def_311 (* b.speed_y__AT1 b.delta__AT1)))
(let ((.def_339 (+ .def_311 .def_338)))
(let ((.def_340 (+ b.y__AT1 .def_339)))
(let ((.def_341 (= .def_340 0.0 )))
(let ((.def_344 (and .def_341 .def_343)))
(let ((.def_351 (and .def_344 .def_350)))
(let ((.def_358 (and .def_351 .def_357)))
(let ((.def_359 (or .def_292 .def_358)))
(let ((.def_421 (and .def_359 .def_420)))
(let ((.def_426 (and .def_421 .def_425)))
(let ((.def_447 (and .def_426 .def_446)))
(let ((.def_456 (and .def_447 .def_455)))
(let ((.def_459 (and .def_456 .def_458)))
(let ((.def_462 (and .def_459 .def_461)))
(let ((.def_463 (and .def_270 .def_462)))
(let ((.def_480 (and .def_463 .def_479)))
(let ((.def_492 (and .def_480 .def_491)))
(let ((.def_329 (not .def_328)))
(let ((.def_301 (* 2.0 b.delta__AT1)))
(let ((.def_302 (* b.speed_y__AT1 .def_301)))
(let ((.def_299 (* g__AT0 .def_298)))
(let ((.def_300 (* (- 1.0) .def_299)))
(let ((.def_303 (+ .def_300 .def_302)))
(let ((.def_304 (* 2.0 b.y__AT1)))
(let ((.def_306 (+ .def_304 .def_303)))
(let ((.def_321 (<= .def_306 0.0 )))
(let ((.def_322 (not .def_321)))
(let ((.def_318 (* b.speed_y__AT1 b.speed_y__AT1)))
(let ((.def_317 (* g__AT0 .def_304)))
(let ((.def_319 (+ .def_317 .def_318)))
(let ((.def_320 (<= .def_319 0.0 )))
(let ((.def_323 (and .def_320 .def_322)))
(let ((.def_324 (and .def_291 .def_323)))
(let ((.def_312 (+ .def_304 .def_311)))
(let ((.def_313 (<= 0.0 .def_312)))
(let ((.def_314 (and .def_310 .def_313)))
(let ((.def_307 (<= 0.0 .def_306)))
(let ((.def_315 (and .def_307 .def_314)))
(let ((.def_275 (<= 0.0 b.y__AT1)))
(let ((.def_297 (and .def_275 .def_296)))
(let ((.def_308 (and .def_297 .def_307)))
(let ((.def_295 (not .def_294)))
(let ((.def_309 (or .def_295 .def_308)))
(let ((.def_316 (or .def_309 .def_315)))
(let ((.def_325 (or .def_316 .def_324)))
(let ((.def_326 (not .def_325)))
(let ((.def_330 (or .def_326 .def_329)))
(let ((.def_331 (or .def_292 .def_330)))
(let ((.def_38 (not b.counter.0__AT0)))
(let ((.def_284 (or b.counter.1__AT0 .def_38)))
(let ((.def_285 (or b.counter.2__AT0 .def_284)))
(let ((.def_41 (not b.counter.2__AT0)))
(let ((.def_36 (not b.counter.1__AT0)))
(let ((.def_39 (and .def_36 .def_38)))
(let ((.def_283 (or .def_39 .def_41)))
(let ((.def_286 (and .def_283 .def_285)))
(let ((.def_287 (or b.counter.3__AT0 .def_286)))
(let ((.def_280 (or .def_39 b.counter.2__AT0)))
(let ((.def_279 (or .def_36 .def_41)))
(let ((.def_281 (and .def_279 .def_280)))
(let ((.def_44 (not b.counter.3__AT0)))
(let ((.def_282 (or .def_44 .def_281)))
(let ((.def_288 (and .def_282 .def_287)))
(let ((.def_276 (and .def_73 .def_275)))
(let ((.def_273 (or .def_270 .def_272)))
(let ((.def_263 (or .def_164 .def_176)))
(let ((.def_267 (or b.counter.3__AT1 .def_263)))
(let ((.def_264 (or b.counter.2__AT1 .def_263)))
(let ((.def_262 (or .def_171 .def_176)))
(let ((.def_265 (and .def_262 .def_264)))
(let ((.def_266 (or .def_186 .def_265)))
(let ((.def_268 (and .def_266 .def_267)))
(let ((.def_274 (and .def_268 .def_273)))
(let ((.def_277 (and .def_274 .def_276)))
(let ((.def_82 (<= 0.0 b.delta__AT0)))
(let ((.def_57 (not b.EVENT.0__AT0)))
(let ((.def_55 (not b.EVENT.1__AT0)))
(let ((.def_79 (and .def_55 .def_57)))
(let ((.def_80 (not .def_79)))
(let ((.def_258 (or .def_80 .def_82)))
(let ((.def_259 (or b.EVENT.1__AT0 .def_258)))
(let ((.def_208 (= b.counter.0__AT0 b.counter.0__AT1)))
(let ((.def_206 (= b.counter.1__AT0 b.counter.1__AT1)))
(let ((.def_204 (= b.counter.2__AT0 b.counter.2__AT1)))
(let ((.def_203 (= b.counter.3__AT0 b.counter.3__AT1)))
(let ((.def_205 (and .def_203 .def_204)))
(let ((.def_207 (and .def_205 .def_206)))
(let ((.def_209 (and .def_207 .def_208)))
(let ((.def_255 (or .def_80 .def_209)))
(let ((.def_256 (or b.EVENT.1__AT0 .def_255)))
(let ((.def_215 (= b.x__AT1 b.x__AT0)))
(let ((.def_117 (= b.y__AT0 b.y__AT1)))
(let ((.def_249 (and .def_117 .def_215)))
(let ((.def_135 (= b.speed_x__AT0 b.speed_x__AT1)))
(let ((.def_250 (and .def_135 .def_249)))
(let ((.def_202 (= b.speed_y__AT0 b.speed_y__AT1)))
(let ((.def_251 (and .def_202 .def_250)))
(let ((.def_246 (= b.delta__AT0 0.0 )))
(let ((.def_247 (and .def_79 .def_246)))
(let ((.def_248 (not .def_247)))
(let ((.def_252 (or .def_248 .def_251)))
(let ((.def_253 (or b.EVENT.1__AT0 .def_252)))
(let ((.def_226 (= b.time__AT0 b.time__AT1)))
(let ((.def_238 (and .def_215 .def_226)))
(let ((.def_239 (and .def_117 .def_238)))
(let ((.def_240 (and .def_135 .def_239)))
(let ((.def_241 (and .def_202 .def_240)))
(let ((.def_242 (and .def_209 .def_241)))
(let ((.def_243 (or .def_55 .def_242)))
(let ((.def_229 (* (- 1.0) b.time__AT1)))
(let ((.def_232 (+ b.delta__AT0 .def_229)))
(let ((.def_233 (+ b.time__AT0 .def_232)))
(let ((.def_234 (= .def_233 0.0 )))
(let ((.def_235 (or .def_80 .def_234)))
(let ((.def_236 (or b.EVENT.1__AT0 .def_235)))
(let ((.def_227 (or .def_79 .def_226)))
(let ((.def_228 (or b.EVENT.1__AT0 .def_227)))
(let ((.def_237 (and .def_228 .def_236)))
(let ((.def_244 (and .def_237 .def_243)))
(let ((.def_222 (= .def_80 b.event_is_timed__AT1)))
(let ((.def_220 (= b.event_is_timed__AT0 .def_79)))
(let ((.def_223 (and .def_220 .def_222)))
(let ((.def_210 (and .def_202 .def_209)))
(let ((.def_155 (= b.y__AT0 0.0 )))
(let ((.def_84 (<= 0.0 b.speed_y__AT0)))
(let ((.def_99 (not .def_84)))
(let ((.def_156 (and .def_99 .def_155)))
(let ((.def_211 (or .def_156 .def_210)))
(let ((.def_177 (or b.counter.0__AT0 .def_176)))
(let ((.def_175 (or .def_38 b.counter.0__AT1)))
(let ((.def_178 (and .def_175 .def_177)))
(let ((.def_179 (and .def_164 .def_178)))
(let ((.def_180 (or b.counter.1__AT0 .def_179)))
(let ((.def_174 (or .def_36 b.counter.1__AT1)))
(let ((.def_181 (and .def_174 .def_180)))
(let ((.def_194 (and .def_171 .def_181)))
(let ((.def_195 (or b.counter.2__AT0 .def_194)))
(let ((.def_189 (and .def_38 .def_164)))
(let ((.def_190 (or b.counter.1__AT0 .def_189)))
(let ((.def_191 (and .def_174 .def_190)))
(let ((.def_192 (and b.counter.2__AT1 .def_191)))
(let ((.def_193 (or .def_41 .def_192)))
(let ((.def_196 (and .def_193 .def_195)))
(let ((.def_197 (and b.counter.3__AT1 .def_196)))
(let ((.def_198 (or b.counter.3__AT0 .def_197)))
(let ((.def_182 (and b.counter.2__AT1 .def_181)))
(let ((.def_183 (or b.counter.2__AT0 .def_182)))
(let ((.def_168 (or b.counter.1__AT0 b.counter.1__AT1)))
(let ((.def_166 (and .def_164 b.counter.0__AT1)))
(let ((.def_167 (or .def_36 .def_166)))
(let ((.def_169 (and .def_167 .def_168)))
(let ((.def_172 (and .def_169 .def_171)))
(let ((.def_173 (or .def_41 .def_172)))
(let ((.def_184 (and .def_173 .def_183)))
(let ((.def_187 (and .def_184 .def_186)))
(let ((.def_188 (or .def_44 .def_187)))
(let ((.def_199 (and .def_188 .def_198)))
(let ((.def_158 (* (- 1.0) b.speed_y__AT0)))
(let ((.def_161 (* .def_158 .def_160)))
(let ((.def_162 (= b.speed_y__AT1 .def_161)))
(let ((.def_200 (and .def_162 .def_199)))
(let ((.def_157 (not .def_156)))
(let ((.def_201 (or .def_157 .def_200)))
(let ((.def_212 (and .def_201 .def_211)))
(let ((.def_213 (and .def_117 .def_212)))
(let ((.def_214 (and .def_135 .def_213)))
(let ((.def_216 (and .def_214 .def_215)))
(let ((.def_217 (or .def_79 .def_216)))
(let ((.def_218 (or b.EVENT.1__AT0 .def_217)))
(let ((.def_147 (* b.delta__AT0 .def_122)))
(let ((.def_150 (+ .def_147 .def_149)))
(let ((.def_151 (+ b.speed_y__AT0 .def_150)))
(let ((.def_152 (= .def_151 0.0 )))
(let ((.def_139 (* (- 1.0) b.x__AT1)))
(let ((.def_143 (+ .def_139 b.x__AT0)))
(let ((.def_137 (* b.delta__AT0 b.speed_x__AT0)))
(let ((.def_144 (+ .def_137 .def_143)))
(let ((.def_145 (= .def_144 0.0 )))
(let ((.def_86 (* b.delta__AT0 b.delta__AT0)))
(let ((.def_124 (* .def_86 .def_123)))
(let ((.def_126 (* (- 1.0) b.y__AT1)))
(let ((.def_129 (+ .def_126 .def_124)))
(let ((.def_100 (* b.speed_y__AT0 b.delta__AT0)))
(let ((.def_130 (+ .def_100 .def_129)))
(let ((.def_131 (+ b.y__AT0 .def_130)))
(let ((.def_132 (= .def_131 0.0 )))
(let ((.def_136 (and .def_132 .def_135)))
(let ((.def_146 (and .def_136 .def_145)))
(let ((.def_153 (and .def_146 .def_152)))
(let ((.def_154 (or .def_80 .def_153)))
(let ((.def_219 (and .def_154 .def_218)))
(let ((.def_224 (and .def_219 .def_223)))
(let ((.def_245 (and .def_224 .def_244)))
(let ((.def_254 (and .def_245 .def_253)))
(let ((.def_257 (and .def_254 .def_256)))
(let ((.def_260 (and .def_257 .def_259)))
(let ((.def_261 (and .def_55 .def_260)))
(let ((.def_278 (and .def_261 .def_277)))
(let ((.def_289 (and .def_278 .def_288)))
(let ((.def_118 (not .def_117)))
(let ((.def_90 (* 2.0 b.delta__AT0)))
(let ((.def_91 (* b.speed_y__AT0 .def_90)))
(let ((.def_87 (* g__AT0 .def_86)))
(let ((.def_89 (* (- 1.0) .def_87)))
(let ((.def_92 (+ .def_89 .def_91)))
(let ((.def_93 (* 2.0 b.y__AT0)))
(let ((.def_95 (+ .def_93 .def_92)))
(let ((.def_110 (<= .def_95 0.0 )))
(let ((.def_111 (not .def_110)))
(let ((.def_107 (* b.speed_y__AT0 b.speed_y__AT0)))
(let ((.def_106 (* g__AT0 .def_93)))
(let ((.def_108 (+ .def_106 .def_107)))
(let ((.def_109 (<= .def_108 0.0 )))
(let ((.def_112 (and .def_109 .def_111)))
(let ((.def_113 (and .def_79 .def_112)))
(let ((.def_101 (+ .def_93 .def_100)))
(let ((.def_102 (<= 0.0 .def_101)))
(let ((.def_103 (and .def_99 .def_102)))
(let ((.def_96 (<= 0.0 .def_95)))
(let ((.def_104 (and .def_96 .def_103)))
(let ((.def_74 (<= 0.0 b.y__AT0)))
(let ((.def_85 (and .def_74 .def_84)))
(let ((.def_97 (and .def_85 .def_96)))
(let ((.def_83 (not .def_82)))
(let ((.def_98 (or .def_83 .def_97)))
(let ((.def_105 (or .def_98 .def_104)))
(let ((.def_114 (or .def_105 .def_113)))
(let ((.def_115 (not .def_114)))
(let ((.def_119 (or .def_115 .def_118)))
(let ((.def_120 (or .def_80 .def_119)))
(let ((.def_75 (and .def_73 .def_74)))
(let ((.def_58 (or .def_55 .def_57)))
(let ((.def_48 (or .def_36 .def_38)))
(let ((.def_52 (or b.counter.3__AT0 .def_48)))
(let ((.def_49 (or b.counter.2__AT0 .def_48)))
(let ((.def_47 (or .def_38 .def_41)))
(let ((.def_50 (and .def_47 .def_49)))
(let ((.def_51 (or .def_44 .def_50)))
(let ((.def_53 (and .def_51 .def_52)))
(let ((.def_59 (and .def_53 .def_58)))
(let ((.def_76 (and .def_59 .def_75)))
(let ((.def_42 (and .def_39 .def_41)))
(let ((.def_45 (and .def_42 .def_44)))
(let ((.def_33 (= b.speed_y__AT0 0.0 )))
(let ((.def_30 (= b.y__AT0 10.0 )))
(let ((.def_25 (= b.time__AT0 0.0 )))
(let ((.def_27 (and .def_25 b.event_is_timed__AT0)))
(let ((.def_31 (and .def_27 .def_30)))
(let ((.def_34 (and .def_31 .def_33)))
(let ((.def_46 (and .def_34 .def_45)))
(let ((.def_77 (and .def_46 .def_76)))
(let ((.def_17 (or b.counter.1__AT3 .def_9)))
(let ((.def_18 (or b.counter.2__AT3 .def_17)))
(let ((.def_10 (and .def_6 .def_9)))
(let ((.def_16 (or .def_4 .def_10)))
(let ((.def_19 (and .def_16 .def_18)))
(let ((.def_20 (or b.counter.3__AT3 .def_19)))
(let ((.def_11 (or b.counter.2__AT3 .def_10)))
(let ((.def_7 (or .def_4 .def_6)))
(let ((.def_12 (and .def_7 .def_11)))
(let ((.def_15 (or .def_12 .def_14)))
(let ((.def_21 (and .def_15 .def_20)))
(let ((.def_22 (not .def_21)))
(let ((.def_78 (and .def_22 .def_77)))
(let ((.def_121 (and .def_78 .def_120)))
(let ((.def_290 (and .def_121 .def_289)))
(let ((.def_332 (and .def_290 .def_331)))
(let ((.def_493 (and .def_332 .def_492)))
(let ((.def_535 (and .def_493 .def_534)))
(let ((.def_688 (and .def_535 .def_687)))
(let ((.def_730 (and .def_688 .def_729)))
.def_730)))))))))))))))))))))))))))))))))))))))))))))))))))))))))))))))))))))))))))))))))))))))))))))))))))))))))))))))))))))))))))))))))))))))))))))))))))))))))))))))))))))))))))))))))))))))))))))))))))))))))))))))))))))))))))))))))))))))))))))))))))))))))))))))))))))))))))))))))))))))))))))))))))))))))))))))))))))))))))))))))))))))))))))))))))))))))))))))))))))))))))))))))))))))))))))))))))))))))))))))))))))))))))))))))))))))))))))))))))))))))))))))))))))))))))))))))))))))))))))))))))))))))))))))))))))))))))))))))))))))))))))))))))))))))))))))))))))))))))))))))))))))))))))))))))))))))))))))))))))))))))))))))))))))))))))))))))))))))))))))))))))
(check-sat)
(exit)
